k = 60;
b = 30;
AtomicConstraints =  [|
1, 2|
	1, 3|
	1, 48|
	1, 47|
	1, 51|
	1, 52|
	1, 57|
	2, 3|
	2, 48|
	2, 47|
	2, 51|
	2, 52|
	2, 57|
	3, 48|
	3, 47|
	3, 51|
	3, 52|
	3, 57|
	4, 3|
	4, 48|
	4, 47|
	4, 51|
	4, 52|
	4, 57|
	5, 12|
	5, 48|
	5, 47|
	5, 51|
	5, 52|
	5, 57|
	6, 10|
	6, 11|
	6, 12|
	6, 48|
	6, 47|
	6, 51|
	6, 52|
	6, 57|
	7, 1|
	7, 2|
	7, 3|
	7, 4|
	7, 5|
	7, 6|
	7, 10|
	7, 11|
	7, 12|
	7, 48|
	7, 47|
	7, 51|
	7, 59|
	7, 52|
	7, 57|
	8, 1|
	8, 2|
	8, 3|
	8, 4|
	8, 5|
	8, 6|
	8, 10|
	8, 11|
	8, 12|
	8, 48|
	8, 47|
	8, 51|
	8, 59|
	8, 52|
	8, 57|
	9, 1|
	9, 2|
	9, 3|
	9, 4|
	9, 5|
	9, 6|
	9, 10|
	9, 11|
	9, 12|
	9, 48|
	9, 47|
	9, 51|
	9, 59|
	9, 52|
	9, 57|
	10, 52|
	10, 57|
	11, 10|
	11, 51|
	11, 52|
	11, 57|
	12, 10|
	12, 11|
	12, 47|
	12, 51|
	12, 52|
	12, 57|
	13, 1|
	13, 2|
	13, 3|
	13, 4|
	13, 5|
	13, 6|
	13, 10|
	13, 11|
	13, 12|
	13, 48|
	13, 47|
	13, 51|
	13, 54|
	13, 59|
	13, 58|
	13, 49|
	13, 52|
	13, 57|
	14, 1|
	14, 2|
	14, 3|
	14, 4|
	14, 5|
	14, 6|
	14, 9|
	14, 10|
	14, 11|
	14, 12|
	14, 48|
	14, 47|
	14, 51|
	14, 54|
	14, 59|
	14, 58|
	14, 49|
	14, 52|
	14, 57|
	15, 1|
	15, 2|
	15, 3|
	15, 4|
	15, 5|
	15, 6|
	15, 8|
	15, 9|
	15, 10|
	15, 11|
	15, 12|
	15, 48|
	15, 47|
	15, 51|
	15, 59|
	15, 58|
	15, 49|
	15, 52|
	15, 57|
	16, 36|
	16, 17|
	16, 18|
	16, 33|
	16, 19|
	16, 35|
	16, 20|
	16, 21|
	16, 22|
	16, 40|
	16, 43|
	16, 37|
	16, 44|
	16, 23|
	16, 25|
	16, 32|
	16, 26|
	16, 29|
	33, 36|
	33, 32|
	33, 29|
	19, 36|
	19, 32|
	19, 29|
	35, 36|
	35, 17|
	35, 18|
	20, 17|
	20, 18|
	21, 17|
	21, 18|
	22, 18|
	40, 41|
	42, 41|
	39, 38|
	34, 32|
	43, 36|
	43, 33|
	43, 19|
	43, 32|
	43, 29|
	37, 36|
	37, 17|
	37, 18|
	37, 19|
	37, 35|
	37, 20|
	37, 21|
	37, 22|
	37, 32|
	37, 29|
	44, 36|
	44, 17|
	44, 18|
	44, 35|
	44, 20|
	44, 21|
	44, 22|
	44, 40|
	44, 29|
	23, 36|
	23, 17|
	23, 18|
	23, 41|
	23, 35|
	23, 20|
	23, 21|
	23, 22|
	23, 40|
	23, 42|
	31, 17|
	31, 18|
	31, 41|
	31, 20|
	31, 21|
	31, 22|
	31, 40|
	31, 42|
	24, 17|
	24, 18|
	24, 41|
	24, 21|
	24, 22|
	24, 40|
	24, 42|
	25, 36|
	25, 17|
	25, 18|
	25, 33|
	25, 19|
	25, 35|
	25, 20|
	25, 21|
	25, 22|
	25, 40|
	25, 37|
	25, 44|
	25, 23|
	25, 32|
	25, 29|
	26, 36|
	26, 17|
	26, 18|
	26, 41|
	26, 33|
	26, 19|
	26, 35|
	26, 20|
	26, 21|
	26, 22|
	26, 40|
	26, 42|
	26, 37|
	26, 44|
	26, 23|
	26, 31|
	26, 32|
	26, 29|
	27, 36|
	27, 17|
	27, 18|
	27, 41|
	27, 19|
	27, 35|
	27, 20|
	27, 21|
	27, 22|
	27, 40|
	27, 42|
	27, 37|
	27, 44|
	27, 23|
	27, 31|
	27, 24|
	27, 32|
	27, 29|
	28, 36|
	28, 17|
	28, 18|
	28, 41|
	28, 38|
	28, 19|
	28, 35|
	28, 20|
	28, 21|
	28, 22|
	28, 40|
	28, 42|
	28, 39|
	28, 44|
	28, 23|
	28, 31|
	28, 24|
	28, 32|
	28, 29|
	45, 36|
	45, 17|
	45, 18|
	45, 33|
	45, 19|
	45, 35|
	45, 20|
	45, 21|
	45, 22|
	45, 34|
	45, 43|
	45, 37|
	45, 32|
	45, 29|
	30, 36|
	30, 17|
	30, 18|
	30, 33|
	30, 19|
	30, 35|
	30, 20|
	30, 21|
	30, 22|
	30, 43|
	30, 37|
	30, 44|
	30, 25|
	30, 32|
	30, 29|
	48, 47|
	48, 51|
	48, 52|
	48, 57|
	47, 51|
	47, 52|
	47, 57|
	51, 52|
	51, 57|
	46, 36|
	46, 16|
	46, 17|
	46, 18|
	46, 41|
	46, 38|
	46, 33|
	46, 19|
	46, 35|
	46, 20|
	46, 21|
	46, 22|
	46, 40|
	46, 42|
	46, 39|
	46, 34|
	46, 43|
	46, 37|
	46, 44|
	46, 23|
	46, 31|
	46, 24|
	46, 25|
	46, 32|
	46, 26|
	46, 27|
	46, 28|
	46, 29|
	46, 45|
	46, 30|
	46, 59|
	46, 52|
	46, 57|
	56, 54|
	53, 54|
	53, 56|
	60, 1|
	60, 2|
	60, 3|
	60, 4|
	60, 5|
	60, 6|
	60, 10|
	60, 11|
	60, 12|
	60, 36|
	60, 16|
	60, 17|
	60, 18|
	60, 41|
	60, 38|
	60, 33|
	60, 19|
	60, 35|
	60, 20|
	60, 21|
	60, 22|
	60, 40|
	60, 42|
	60, 39|
	60, 34|
	60, 43|
	60, 37|
	60, 44|
	60, 23|
	60, 31|
	60, 24|
	60, 25|
	60, 32|
	60, 26|
	60, 27|
	60, 28|
	60, 29|
	60, 45|
	60, 30|
	60, 48|
	60, 47|
	60, 51|
	60, 46|
	60, 59|
	60, 50|
	60, 55|
	60, 52|
	60, 57|
	50, 59|
	50, 52|
	50, 57|
	55, 10|
	55, 11|
	55, 12|
	55, 36|
	55, 16|
	55, 17|
	55, 18|
	55, 41|
	55, 38|
	55, 33|
	55, 19|
	55, 35|
	55, 20|
	55, 21|
	55, 22|
	55, 40|
	55, 42|
	55, 39|
	55, 34|
	55, 43|
	55, 37|
	55, 44|
	55, 23|
	55, 31|
	55, 24|
	55, 25|
	55, 32|
	55, 26|
	55, 27|
	55, 28|
	55, 29|
	55, 45|
	55, 30|
	55, 48|
	55, 47|
	55, 51|
	55, 46|
	55, 59|
	55, 50|
	55, 52|
	55, 57|
	58, 1|
	58, 2|
	58, 3|
	58, 48|
	58, 47|
	58, 51|
	58, 52|
	58, 57|
	49, 1|
	49, 2|
	49, 3|
	49, 48|
	49, 47|
	49, 51|
	49, 52|
	49, 57|];
DisjunctiveConstraints =  [|1, 48, 1, 18|
	1, 47, 1, 17|
	1, 51, 1, 21|
	2, 47, 2, 17|
	2, 51, 2, 21|
	3, 51, 3, 21|
	5, 6, 5, 4|
	5, 10, 40, 5|
	5, 11, 41, 5|
	5, 12, 42, 5|
	6, 10, 6, 40|
	6, 11, 6, 41|
	6, 12, 6, 42|
	8, 7, 8, 9|
	12, 59, 29, 12|
	13, 9, 39, 13|
	14, 8, 38, 14|
	14, 9, 14, 39|
	14, 15, 14, 13|
	15, 7, 37, 15|
	15, 8, 15, 38|
	16, 40, 10, 16|
	16, 23, 53, 16|
	36, 17, 36, 29|
	17, 18, 17, 36|
	19, 35, 19, 33|
	35, 20, 35, 19|
	20, 21, 20, 35|
	21, 22, 21, 20|
	22, 40, 22, 21|
	40, 42, 40, 22|
	44, 23, 44, 37|
	23, 41, 11, 23|
	23, 31, 23, 44|
	31, 24, 31, 23|
	26, 41, 11, 26|
	26, 27, 26, 25|
	27, 28, 27, 26|
	28, 38, 8, 28|
	28, 39, 9, 28|
	45, 22, 52, 45|
	45, 37, 7, 45|
	30, 16, 30, 45|
	29, 36, 29, 32|
	48, 52, 48, 22|
	47, 52, 47, 22|
	51, 52, 51, 22|
	46, 8, 46, 38|
	46, 9, 46, 39|
	54, 57, 27, 54|
	56, 57, 27, 56|
	53, 57, 27, 53|];
SoftAtomicConstraints =  [|
46, 3|
5, 4|
6, 5|
7, 8|
8, 9|
14, 13|
15, 14|
18, 17|
41, 18|
35, 19|
21, 20|
22, 21|
40, 22|
31, 23|
26, 25|
27, 26|
28, 27|
36, 29|
16, 30|
24, 31|
29, 32|
19, 33|
43, 34|
20, 35|
17, 36|
44, 37|
42, 40|
38, 41|
39, 42|
37, 43|
23, 44|
30, 45|
58, 49|
52, 57|];
DirectSuccessors =  [];
